min: 459 x1 + 962 x2 + 227 x3 + 911 x4 + 932 x5 + 208 x6 + 777 x7 + 608 x8 + 371 x9 + 558 x10 + 558 x11 + 146 x12 + 630 x13 + 344 x14 + 623 x15 + 741 x16 + 554 x17 + 437 x18 + 60 x19 + 440 x20 + 269 x21 + 756 x22 + 391 x23 + 33 x24 + 407 x25 + 228 x26 + 856 x27 + 478 x28 + 106 x29 + 668 x30 + 936 x31 + 851 x32 + 408 x33 + 782 x34 + 466 x35 + 451 x36 + 585 x37 + 755 x38 + 687 x39 + 748 x40 + 168 x41 + 800 x42 + 706 x43 + 90 x44 + 754 x45;

r1: x7 + x18 >= 1;
r2: x43 + x30 + x33 + x23 + x4 + x10 >= 1;
r3: x19 + x37 + x26 + x22 + x36 >= 1;
r4: x43 + x20 + x41 + x21 >= 1;
r5: x11 + x10 + x21 + x19 + x40 + x38 + x43 + x41 >= 1;
r6: x14 + x30 >= 1;
r7: x17 >= 1;
r8: x15 + x29 + x7 + x11 + x24 + x21 + x2 + x8 >= 1;
r9: x13 + x32 + x35 >= 1;
r10: x18 + x25 + x22 + x27 + x34 + x1 + x28 >= 1;
r11: x11 >= 1;
r12: x19 >= 1;
r13: x41 + x16 + x15 + x43 + x24 + x33 + x34 >= 1;
r14: x22 + x34 >= 1;
r15: x16 + x21 + x28 + x2 + x40 >= 1;
r16: x40 + x19 >= 1;
r17: x11 + x16 + x5 + x3 + x44 + x22 >= 1;
r18: x34 + x45 >= 1;
r19: x44 + x2 + x39 + x41 + x27 + x34 + x14 >= 1;
r20: x24 + x21 + x23 + x45 + x20 + x33 + x9 >= 1;
r21: x10 >= 1;
r22: x40 + x41 + x35 + x26 + x5 + x44 + x19 >= 1;
r23: x14 + x19 >= 1;
r24: x30 + x1 + x2 + x31 + x7 + x23 + x14 + x22 >= 1;
r25: x28 + x36 + x17 + x9 + x31 + x15 >= 1;
r26: x17 + x8 + x27 + x43 + x12 + x20 + x31 >= 1;
r27: x19 + x42 + x32 + x38 + x16 + x6 >= 1;
r28: x7 >= 1;
r29: x22 + x8 + x20 + x23 + x12 + x37 + x6 >= 1;
r30: x1 + x29 + x11 + x24 >= 1;
r31: x37 + x32 + x42 >= 1;
r32: x45 + x31 + x12 + x35 + x25 >= 1;
r33: x39 + x16 + x2 >= 1;
r34: x25 + x16 + x23 >= 1;
r35: x41 + x16 + x36 + x27 >= 1;
r36: x45 + x16 >= 1;
r37: x37 + x13 + x19 + x44 + x22 + x38 + x16 + x6 >= 1;
r38: x14 >= 1;
r39: x23 + x6 + x12 + x17 + x1 + x24 >= 1;
r40: x12 + x25 + x17 + x38 + x4 >= 1;
r41: x9 + x6 + x25 + x10 + x40 >= 1;
r42: x7 + x14 >= 1;
r43: x3 + x7 + x31 + x15 + x10 + x41 >= 1;
r44: x9 + x16 + x12 + x31 + x7 + x15 >= 1;
r45: x9 + x45 + x16 + x25 + x11 + x27 >= 1;
r46: x16 + x34 + x35 + x32 >= 1;
r47: x40 + x15 + x11 >= 1;
r48: x2 + x21 + x41 + x31 + x40 + x30 + x1 >= 1;
r49: x26 + x25 + x20 + x7 + x41 + x42 + x18 + x16 >= 1;
r50: x15 + x1 + x33 + x32 + x18 + x4 + x28 + x38 >= 1;
r51: x4 + x2 + x37 >= 1;
r52: x30 + x27 + x29 + x13 >= 1;
r53: x40 + x5 + x20 + x28 + x8 >= 1;
r54: x16 + x42 + x13 + x14 >= 1;
r55: x41 >= 1;
r56: x39 + x42 + x35 + x27 >= 1;
r57: x12 + x14 + x45 + x26 + x9 + x27 + x23 >= 1;
r58: x9 + x29 + x34 >= 1;
r59: x35 + x18 + x25 + x4 + x5 + x22 + x20 >= 1;
r60: x22 + x6 + x45 + x28 + x25 >= 1;
r61: x44 + x34 + x35 + x20 + x4 + x22 >= 1;
r62: x38 + x6 + x34 + x15 + x37 + x22 + x39 >= 1;
r63: x10 + x17 + x41 + x30 + x25 + x40 >= 1;
r64: x43 + x29 + x33 + x21 + x23 >= 1;
r65: x24 + x40 + x39 + x28 + x31 + x43 + x1 >= 1;
r66: x18 + x3 + x22 + x2 + x43 + x5 + x21 >= 1;
r67: x24 + x4 >= 1;
r68: x33 + x12 >= 1;
r69: x12 >= 1;
r70: x38 + x1 + x33 >= 1;
r71: x12 + x33 + x44 + x18 + x39 + x2 + x24 >= 1;
r72: x15 + x32 + x2 + x1 + x6 + x18 >= 1;
r73: x28 + x26 >= 1;
r74: x22 + x6 + x3 + x18 + x36 + x39 + x16 + x1 >= 1;
r75: x20 + x18 + x32 + x42 + x43 >= 1;
r76: x44 + x6 >= 1;
r77: x25 >= 1;
r78: x12 >= 1;
r79: x1 + x36 + x3 + x37 + x33 + x11 >= 1;
r80: x37 + x21 + x1 + x23 >= 1;
r81: x28 + x34 + x36 + x13 >= 1;
r82: x23 + x34 + x27 + x2 >= 1;
r83: x1 + x35 + x33 + x41 + x23 >= 1;
r84: x9 + x42 + x21 >= 1;
r85: x28 + x15 + x40 + x7 + x31 + x20 >= 1;
r86: x15 + x4 + x5 + x29 + x12 + x40 + x25 + x20 >= 1;
r87: x21 >= 1;
r88: x20 + x26 + x25 + x22 + x38 + x5 + x21 + x30 >= 1;
r89: x21 >= 1;
r90: x24 >= 1;
r91: x18 + x11 + x19 >= 1;
r92: x30 + x42 + x19 >= 1;
r93: x8 >= 1;
r94: x19 + x13 + x28 + x5 + x7 + x32 >= 1;
r95: x16 + x25 + x42 >= 1;
r96: x45 + x21 + x10 >= 1;
r97: x39 + x41 + x9 + x42 + x24 + x40 + x7 >= 1;
r98: x4 + x31 >= 1;
r99: x11 + x3 + x22 >= 1;
r100: x44 >= 1;
r101: x34 + x18 + x25 + x8 + x3 + x14 >= 1;
r102: x30 + x5 + x31 + x9 + x1 >= 1;
r103: x44 + x37 + x7 + x15 + x45 + x14 + x39 >= 1;
r104: x31 + x2 + x18 + x7 >= 1;
r105: x5 + x4 + x44 + x10 + x1 + x36 + x40 + x13 >= 1;
r106: x6 >= 1;
r107: x14 + x18 + x26 + x45 + x22 + x17 + x28 >= 1;
r108: x3 + x36 + x23 + x44 + x30 + x39 + x42 + x35 >= 1;
r109: x33 >= 1;
r110: x45 + x13 + x37 + x1 + x7 + x10 + x30 >= 1;
r111: x6 + x11 >= 1;
r112: x10 >= 1;
r113: x31 + x15 + x18 + x32 + x1 + x2 + x42 + x6 >= 1;
r114: x15 + x29 + x36 + x32 >= 1;
r115: x19 + x16 + x28 + x36 + x41 + x12 + x4 + x29 >= 1;
r116: x7 + x39 + x19 + x24 + x32 + x14 >= 1;
r117: x12 + x10 + x13 + x16 + x40 + x18 >= 1;
r118: x36 + x28 + x7 + x23 >= 1;
r119: x19 + x24 + x35 + x32 + x42 + x20 + x11 >= 1;
r120: x18 + x7 + x39 >= 1;
r121: x37 + x7 + x25 + x17 + x8 >= 1;
r122: x26 + x1 + x27 + x4 + x32 + x6 + x22 + x20 >= 1;
r123: x42 + x32 + x16 >= 1;
r124: x34 + x8 + x17 + x26 >= 1;
r125: x7 >= 1;
r126: x31 + x32 + x22 + x6 + x2 + x19 >= 1;
r127: x26 + x39 + x7 + x44 >= 1;
r128: x42 + x25 + x10 + x27 + x7 >= 1;
r129: x35 + x45 >= 1;
r130: x41 + x40 + x44 + x43 + x10 + x24 + x7 >= 1;
r131: x45 + x13 + x29 + x9 + x24 >= 1;
r132: x39 + x29 + x44 >= 1;
r133: x1 + x31 + x23 + x17 + x28 >= 1;
r134: x2 + x13 >= 1;
r135: x44 + x30 + x6 + x37 >= 1;
r136: x25 + x35 + x9 + x12 + x41 >= 1;
r137: x32 + x44 + x3 + x45 + x7 + x27 >= 1;
r138: x35 + x33 + x12 + x45 + x27 + x44 + x21 + x40 >= 1;
r139: x22 >= 1;
r140: x38 + x29 + x17 >= 1;
r141: x38 + x27 + x3 >= 1;
r142: x37 >= 1;
r143: x26 + x16 + x43 + x41 >= 1;
r144: x13 >= 1;
r145: x10 + x42 + x16 + x45 >= 1;
r146: x32 + x34 + x13 + x23 >= 1;
r147: x41 + x11 + x12 + x43 + x14 + x10 >= 1;
r148: x23 + x15 + x22 + x28 >= 1;
r149: x19 + x20 + x5 + x22 + x25 + x33 + x18 >= 1;
r150: x23 + x43 + x20 + x16 + x21 >= 1;
r151: x1 + x21 + x23 + x5 + x28 + x36 + x15 + x17 >= 1;
r152: x1 + x29 + x4 >= 1;
r153: x10 + x5 + x31 + x41 + x45 + x12 + x11 + x27 >= 1;
r154: x2 + x15 + x25 + x14 + x5 + x40 + x32 >= 1;
r155: x27 + x34 + x1 + x13 + x3 + x39 >= 1;
r156: x36 + x10 + x25 + x15 + x7 + x37 + x30 + x31 >= 1;
r157: x44 + x43 + x39 + x38 >= 1;
r158: x16 + x18 + x36 >= 1;
r159: x31 + x41 + x23 + x9 >= 1;
r160: x43 + x30 + x3 + x32 + x7 + x13 >= 1;
r161: x26 + x39 + x2 + x10 + x1 >= 1;
r162: x11 + x41 + x6 + x24 >= 1;
r163: x28 + x15 + x27 >= 1;
r164: x32 + x30 + x27 + x10 + x36 + x22 + x16 >= 1;
r165: x37 + x8 >= 1;
r166: x26 + x10 >= 1;
r167: x34 >= 1;
r168: x16 + x12 + x27 + x23 + x45 + x4 >= 1;
r169: x12 + x15 + x45 >= 1;
r170: x38 + x1 >= 1;
r171: x13 + x1 + x38 + x37 + x24 >= 1;
r172: x27 + x13 + x6 + x5 + x2 + x32 + x19 + x21 >= 1;
r173: x43 + x3 + x5 + x16 + x8 + x36 + x33 >= 1;
r174: x10 + x31 + x6 + x22 + x13 + x36 + x26 >= 1;
r175: x7 + x34 + x43 + x32 >= 1;
r176: x27 + x26 + x36 >= 1;
r177: x8 + x4 >= 1;
r178: x13 + x25 + x28 >= 1;
r179: x24 + x3 >= 1;
r180: x17 + x45 + x6 + x14 >= 1;
r181: x37 >= 1;
r182: x7 + x5 + x26 >= 1;
r183: x3 >= 1;
r184: x42 + x22 + x16 + x40 + x31 + x5 + x25 + x39 >= 1;
r185: x25 + x15 + x4 >= 1;
r186: x20 >= 1;
r187: x8 + x23 + x27 + x7 + x15 + x10 >= 1;
r188: x11 + x26 + x9 + x13 >= 1;
r189: x32 + x16 + x43 + x5 >= 1;
r190: x13 + x4 + x30 + x7 + x12 >= 1;
r191: x13 + x39 >= 1;
r192: x5 + x23 + x32 + x2 >= 1;
r193: x19 + x30 + x7 + x4 + x8 >= 1;
r194: x10 + x12 + x17 + x26 >= 1;
r195: x14 + x37 + x16 + x45 + x38 + x4 + x28 >= 1;
r196: x7 + x32 + x23 + x15 + x24 + x31 + x42 + x1 >= 1;
r197: x31 + x17 + x18 + x21 + x8 + x35 + x11 >= 1;
r198: x42 + x25 >= 1;
r199: x12 + x44 + x43 >= 1;
r200: x9 >= 1;
r201: x9 + x19 + x30 + x6 + x33 >= 1;
r202: x34 + x33 + x18 + x25 + x15 + x1 + x41 >= 1;
r203: x21 >= 1;
r204: x24 + x45 + x14 + x35 + x30 >= 1;
r205: x12 + x38 + x42 >= 1;
r206: x42 + x27 + x41 + x44 + x15 >= 1;
r207: x17 >= 1;
r208: x33 + x25 + x3 + x32 + x13 + x7 + x27 >= 1;
r209: x35 >= 1;
r210: x13 + x18 >= 1;
r211: x17 + x38 + x24 + x5 + x27 + x22 >= 1;
r212: x37 + x33 + x39 + x1 + x35 + x8 >= 1;
r213: x20 + x4 + x24 + x37 + x13 + x26 + x8 + x34 >= 1;
r214: x11 + x21 + x41 + x28 >= 1;
r215: x13 + x24 + x18 + x5 + x6 + x16 + x38 + x11 >= 1;
r216: x24 + x28 + x43 + x38 + x39 + x30 + x32 >= 1;
r217: x40 + x28 + x4 + x33 + x32 + x6 + x30 >= 1;
r218: x35 + x3 + x30 + x1 + x28 + x44 >= 1;
r219: x15 + x34 + x2 + x24 + x23 >= 1;
r220: x23 + x34 >= 1;
r221: x16 >= 1;
r222: x16 + x6 + x44 + x26 + x45 + x21 + x10 >= 1;
r223: x5 + x36 + x3 + x35 >= 1;
r224: x11 >= 1;
r225: x40 + x18 + x26 + x4 + x1 >= 1;
r226: x8 + x22 >= 1;
r227: x43 + x6 + x4 + x27 + x29 + x30 >= 1;
r228: x41 + x28 + x44 >= 1;
r229: x31 + x35 + x6 + x42 + x32 + x9 + x19 + x33 >= 1;
r230: x16 + x25 + x30 + x24 >= 1;
r231: x20 + x9 + x36 + x26 + x41 >= 1;
r232: x23 + x3 + x19 + x28 + x32 + x37 + x22 + x16 >= 1;
r233: x33 + x16 + x26 >= 1;
r234: x11 + x7 >= 1;
r235: x31 + x38 + x26 + x18 >= 1;
r236: x37 >= 1;
r237: x44 + x32 + x23 + x3 + x36 + x7 + x2 >= 1;
r238: x9 + x28 + x16 >= 1;
r239: x42 + x3 + x39 + x23 >= 1;
r240: x39 + x15 + x28 + x7 + x45 + x22 >= 1;
r241: x8 + x11 >= 1;
r242: x16 + x5 >= 1;
r243: x8 + x15 + x35 >= 1;
r244: x16 + x12 + x37 + x42 >= 1;
r245: x37 + x18 + x40 + x5 + x27 >= 1;
r246: x43 + x29 + x40 + x22 + x32 + x10 + x3 >= 1;
r247: x16 + x22 + x29 >= 1;
r248: x16 + x4 >= 1;
r249: x26 + x30 + x23 + x41 + x34 >= 1;
r250: x45 + x15 + x23 + x9 >= 1;
r251: x39 + x42 + x28 + x5 >= 1;
r252: x25 + x30 + x31 + x4 + x24 + x3 + x22 + x28 >= 1;
r253: x22 + x41 + x2 + x23 + x38 >= 1;
r254: x13 >= 1;
r255: x9 >= 1;
r256: x42 + x10 + x26 + x34 + x13 + x45 + x30 >= 1;
r257: x4 + x8 + x34 + x39 + x10 + x6 >= 1;
r258: x36 + x44 + x26 + x22 + x39 + x2 + x16 >= 1;
r259: x42 + x33 + x17 + x16 + x21 >= 1;
r260: x12 + x32 + x5 >= 1;
r261: x13 + x36 + x15 + x6 + x27 + x22 + x39 + x40 >= 1;
r262: x11 + x36 + x10 + x8 + x13 + x40 >= 1;
r263: x12 + x18 + x23 >= 1;
r264: x15 + x43 + x45 + x6 + x19 + x27 >= 1;
r265: x26 + x10 + x27 + x43 + x42 + x28 >= 1;
r266: x41 + x43 + x36 + x13 + x19 + x22 >= 1;
r267: x34 + x21 + x22 + x19 >= 1;
r268: x12 + x44 + x21 >= 1;
r269: x19 + x20 + x27 >= 1;
r270: x45 + x35 + x2 + x43 + x20 >= 1;
r271: x2 + x7 + x31 + x6 + x42 + x12 >= 1;
r272: x38 + x17 + x40 + x37 + x3 >= 1;
r273: x34 + x39 + x45 + x37 + x9 + x13 + x8 >= 1;
r274: x42 + x41 + x28 + x35 + x17 + x7 >= 1;
r275: x30 + x17 + x34 + x12 >= 1;
r276: x36 + x45 + x44 >= 1;
r277: x29 + x2 >= 1;
r278: x4 + x39 + x13 + x34 + x43 + x9 + x38 >= 1;
r279: x40 + x15 + x21 + x34 >= 1;
r280: x4 + x18 + x41 + x22 + x30 >= 1;
r281: x15 + x41 + x7 + x2 + x37 + x33 + x1 >= 1;
r282: x28 + x18 + x34 + x35 >= 1;
r283: x3 + x44 + x18 + x20 + x27 + x12 + x17 + x19 >= 1;
r284: x32 >= 1;
r285: x5 + x17 >= 1;
r286: x12 + x18 + x2 + x3 + x16 >= 1;
r287: x36 + x5 + x41 + x37 + x40 + x2 + x35 + x25 >= 1;
r288: x26 + x8 + x13 + x19 + x31 + x42 + x9 >= 1;
r289: x41 + x28 + x25 >= 1;
r290: x15 >= 1;
r291: x30 >= 1;
r292: x3 + x4 + x2 + x34 + x27 + x44 >= 1;
r293: x4 + x14 >= 1;
r294: x3 + x6 + x9 + x32 + x27 + x26 + x34 + x22 >= 1;
r295: x14 + x38 + x19 + x22 + x25 >= 1;
r296: x20 >= 1;
r297: x15 >= 1;
r298: x32 + x24 + x10 + x11 + x45 + x23 + x6 >= 1;
r299: x27 + x30 + x45 + x18 + x4 >= 1;
r300: x13 + x2 + x27 + x20 + x17 + x18 >= 1;
r301: x25 + x5 >= 1;
r302: x7 + x5 + x43 + x41 + x3 + x25 + x1 + x23 >= 1;
r303: x11 + x39 + x42 + x45 + x15 + x4 + x35 >= 1;
r304: x20 + x13 >= 1;
r305: x36 + x1 + x30 + x43 + x12 + x3 + x7 >= 1;
r306: x36 + x43 + x40 >= 1;
r307: x7 + x26 + x24 >= 1;
r308: x7 + x32 + x31 + x9 + x13 + x23 + x44 >= 1;
r309: x1 + x36 + x24 >= 1;
r310: x44 + x33 >= 1;
r311: x42 + x7 >= 1;
r312: x30 + x28 + x3 >= 1;
r313: x35 >= 1;
r314: x37 + x34 + x26 + x12 >= 1;
r315: x12 + x40 >= 1;
r316: x1 + x30 >= 1;
r317: x13 + x44 + x39 + x27 + x41 + x9 + x36 + x17 >= 1;
r318: x2 + x39 + x27 + x1 + x45 + x3 + x32 >= 1;
r319: x42 + x44 + x31 + x15 + x25 >= 1;
r320: x38 >= 1;
r321: x12 + x8 + x18 >= 1;
r322: x17 + x30 + x23 + x22 + x37 + x11 + x9 + x20 >= 1;
r323: x19 + x1 + x13 + x40 >= 1;
r324: x23 + x12 + x37 >= 1;
r325: x39 >= 1;
r326: x28 + x45 + x33 + x31 + x15 + x5 + x13 + x12 >= 1;
r327: x31 + x16 + x9 + x36 >= 1;
r328: x28 + x9 + x45 + x38 + x42 >= 1;
r329: x12 + x37 >= 1;
r330: x14 + x34 + x39 + x13 >= 1;
r331: x40 + x12 + x6 + x7 + x5 + x11 + x16 >= 1;
r332: x43 >= 1;
r333: x37 + x7 + x35 + x42 + x10 >= 1;
r334: x15 + x42 >= 1;
r335: x6 + x26 + x9 + x7 + x13 >= 1;
r336: x43 + x17 + x39 >= 1;
r337: x16 + x6 + x17 + x12 + x40 + x13 + x28 >= 1;
r338: x29 >= 1;
r339: x38 + x30 + x26 + x36 + x17 + x39 >= 1;
r340: x43 + x26 + x31 + x40 >= 1;
r341: x32 + x6 + x22 + x21 + x23 + x14 + x28 + x37 >= 1;
r342: x44 + x40 + x25 + x30 + x10 + x21 >= 1;
r343: x28 + x13 + x2 + x45 + x29 >= 1;
r344: x20 >= 1;
r345: x33 + x24 >= 1;
r346: x34 + x20 + x28 >= 1;
r347: x24 + x28 >= 1;
r348: x34 + x13 + x20 + x22 + x26 + x21 + x41 >= 1;
r349: x28 + x18 + x10 + x24 + x14 + x7 + x32 + x23 >= 1;
r350: x45 + x40 + x30 + x39 + x7 >= 1;
r351: x20 + x11 >= 1;
r352: x30 + x14 + x25 + x18 >= 1;
r353: x12 + x25 + x8 + x42 + x26 + x9 + x30 + x3 >= 1;
r354: x17 + x30 + x31 + x24 + x37 + x25 + x3 + x44 >= 1;
r355: x13 + x40 + x19 >= 1;
r356: x21 + x22 + x24 + x15 + x26 >= 1;
r357: x41 + x27 + x45 + x29 + x36 >= 1;
r358: x37 + x19 + x14 + x5 + x23 >= 1;
r359: x40 + x4 + x2 + x5 + x24 + x7 + x37 >= 1;
r360: x24 + x16 + x8 + x11 + x39 >= 1;
r361: x17 + x42 >= 1;
r362: x43 + x19 + x12 + x1 >= 1;
r363: x28 + x31 + x36 + x20 + x4 + x33 + x5 + x12 >= 1;
r364: x17 + x45 + x38 + x30 + x15 >= 1;
r365: x24 + x37 + x14 + x39 + x23 + x27 + x26 >= 1;
r366: x43 + x22 + x7 + x24 >= 1;
r367: x25 + x14 + x27 + x34 + x13 + x36 + x21 >= 1;
r368: x43 + x6 + x21 + x2 + x36 + x33 >= 1;
r369: x15 + x39 + x43 >= 1;
r370: x38 + x10 + x41 + x44 + x13 >= 1;
r371: x38 + x30 + x18 + x22 + x7 + x26 + x24 + x37 >= 1;
r372: x4 + x28 + x27 + x36 + x12 + x30 + x42 >= 1;
r373: x45 + x20 + x10 + x25 + x38 + x11 + x33 >= 1;
r374: x29 + x4 + x19 + x35 >= 1;
r375: x13 + x35 + x32 + x43 >= 1;
r376: x35 + x30 + x45 + x6 + x32 + x13 + x31 + x5 >= 1;
r377: x7 + x31 + x16 >= 1;
r378: x34 + x27 + x10 + x24 + x20 + x38 + x4 >= 1;
r379: x15 >= 1;
r380: x22 + x34 + x17 + x31 >= 1;
r381: x27 + x34 + x41 >= 1;
r382: x24 + x5 + x40 >= 1;
r383: x40 + x27 >= 1;
r384: x18 + x37 + x36 + x45 + x29 + x27 >= 1;
r385: x5 + x30 >= 1;
r386: x42 + x45 + x14 >= 1;
r387: x13 + x4 + x7 + x17 + x25 + x38 + x39 >= 1;
r388: x41 + x32 + x1 + x22 + x17 >= 1;
r389: x20 >= 1;
r390: x9 + x11 + x17 >= 1;
r391: x36 >= 1;
r392: x30 + x41 + x35 + x26 + x21 + x20 + x4 + x3 >= 1;
r393: x26 + x29 >= 1;
r394: x41 + x37 + x30 + x1 >= 1;
r395: x43 + x4 + x45 + x30 + x7 + x36 + x23 + x18 >= 1;
r396: x9 + x43 + x14 + x38 + x40 + x2 + x23 >= 1;
r397: x21 + x10 + x41 + x11 + x22 + x40 + x45 >= 1;
r398: x19 + x37 + x4 >= 1;
r399: x31 >= 1;
r400: x37 + x30 + x20 + x18 + x17 + x43 + x27 + x39 >= 1;

bin x1, x2, x3, x4, x5, x6, x7, x8, x9, x10, x11, x12, x13, x14, x15, x16, x17, x18, x19, x20, x21, x22, x23, x24, x25, x26, x27, x28, x29, x30, x31, x32, x33, x34, x35, x36, x37, x38, x39, x40, x41, x42, x43, x44, x45;
